40
1 0 4
2 0 2
2 1 4
3 0 1
3 1 1
3 2 2
4 0 1
4 1 3
4 2 2
4 3 3
5 0 4
5 1 2
5 2 3
5 3 3
5 4 3
6 0 1
6 1 1
6 2 2
6 3 3
6 4 2
6 5 1
7 0 4
7 1 2
7 2 2
7 3 4
7 4 2
7 5 1
7 6 4
8 0 1
8 1 1
8 2 1
8 3 3
8 4 3
8 5 2
8 6 3
8 7 2
9 0 3
9 1 2
9 2 4
9 3 2
9 4 4
9 5 3
9 6 4
9 7 3
9 8 1
10 0 3
10 1 2
10 2 1
10 3 2
10 4 1
10 5 4
10 6 4
10 7 1
10 8 1
10 9 1
11 0 3
11 1 2
11 2 3
11 3 2
11 4 4
11 5 1
11 6 3
11 7 4
11 8 3
11 9 1
11 10 2
12 0 1
12 1 2
12 2 3
12 3 4
12 4 1
12 5 1
12 6 4
12 7 2
12 8 4
12 9 1
12 10 3
12 11 2
13 0 3
13 1 1
13 2 3
13 3 1
13 4 2
13 5 2
13 6 2
13 7 3
13 8 1
13 9 2
13 10 3
13 11 4
13 12 1
14 0 3
14 1 4
14 2 2
14 3 4
14 4 1
14 5 3
14 6 4
14 7 3
14 8 1
14 9 3
14 10 1
14 11 2
14 12 1
14 13 1
15 0 4
15 1 4
15 2 2
15 3 2
15 4 3
15 5 4
15 6 4
15 7 2
15 8 3
15 9 3
15 10 3
15 11 2
15 12 2
15 13 4
15 14 4
16 0 2
16 1 1
16 2 2
16 3 1
16 4 2
16 5 3
16 6 2
16 7 1
16 8 1
16 9 2
16 10 4
16 11 3
16 12 3
16 13 3
16 14 2
16 15 2
17 0 4
17 1 1
17 2 2
17 3 3
17 4 4
17 5 4
17 6 2
17 7 3
17 8 4
17 9 4
17 10 3
17 11 3
17 12 1
17 13 2
17 14 1
17 15 1
17 16 1
18 0 4
18 1 2
18 2 4
18 3 1
18 4 1
18 5 4
18 6 4
18 7 3
18 8 2
18 9 2
18 10 1
18 11 1
18 12 3
18 13 4
18 14 2
18 15 2
18 16 1
18 17 4
19 0 4
19 1 4
19 2 1
19 3 1
19 4 1
19 5 4
19 6 1
19 7 1
19 8 2
19 9 4
19 10 1
19 11 3
19 12 3
19 13 2
19 14 1
19 15 3
19 16 3
19 17 3
19 18 2
20 0 2
20 1 2
20 2 2
20 3 1
20 4 3
20 5 3
20 6 1
20 7 2
20 8 1
20 9 4
20 10 4
20 11 2
20 12 1
20 13 2
20 14 4
20 15 3
20 16 3
20 17 3
20 18 4
20 19 3
21 0 1
21 1 3
21 2 3
21 3 1
21 4 1
21 5 3
21 6 4
21 7 3
21 8 2
21 9 1
21 10 1
21 11 3
21 12 2
21 13 2
21 14 4
21 15 1
21 16 3
21 17 1
21 18 2
21 19 3
21 20 3
22 0 3
22 1 1
22 2 4
22 3 1
22 4 4
22 5 1
22 6 4
22 7 2
22 8 2
22 9 1
22 10 1
22 11 2
22 12 1
22 13 2
22 14 2
22 15 1
22 16 3
22 17 3
22 18 2
22 19 1
22 20 4
22 21 1
23 0 2
23 1 1
23 2 3
23 3 2
23 4 1
23 5 1
23 6 1
23 7 2
23 8 1
23 9 4
23 10 2
23 11 2
23 12 1
23 13 1
23 14 3
23 15 1
23 16 1
23 17 2
23 18 1
23 19 2
23 20 4
23 21 2
23 22 2
24 0 1
24 1 3
24 2 4
24 3 4
24 4 3
24 5 2
24 6 1
24 7 1
24 8 2
24 9 4
24 10 1
24 11 3
24 12 1
24 13 4
24 14 4
24 15 3
24 16 2
24 17 2
24 18 2
24 19 4
24 20 2
24 21 1
24 22 4
24 23 4
25 0 2
25 1 4
25 2 1
25 3 2
25 4 3
25 5 2
25 6 3
25 7 4
25 8 1
25 9 2
25 10 3
25 11 1
25 12 1
25 13 1
25 14 1
25 15 3
25 16 3
25 17 2
25 18 2
25 19 1
25 20 2
25 21 2
25 22 2
25 23 4
25 24 2
26 0 2
26 1 4
26 2 2
26 3 2
26 4 1
26 5 4
26 6 2
26 7 3
26 8 1
26 9 3
26 10 4
26 11 4
26 12 2
26 13 3
26 14 1
26 15 2
26 16 3
26 17 2
26 18 1
26 19 3
26 20 2
26 21 1
26 22 3
26 23 4
26 24 3
26 25 1
27 0 4
27 1 4
27 2 1
27 3 4
27 4 3
27 5 3
27 6 2
27 7 2
27 8 1
27 9 1
27 10 3
27 11 2
27 12 3
27 13 4
27 14 1
27 15 3
27 16 1
27 17 4
27 18 2
27 19 2
27 20 3
27 21 3
27 22 2
27 23 3
27 24 2
27 25 4
27 26 4
28 0 1
28 1 2
28 2 4
28 3 4
28 4 4
28 5 3
28 6 3
28 7 1
28 8 4
28 9 4
28 10 2
28 11 1
28 12 1
28 13 2
28 14 3
28 15 2
28 16 2
28 17 2
28 18 1
28 19 1
28 20 2
28 21 4
28 22 2
28 23 4
28 24 4
28 25 2
28 26 3
28 27 4
29 0 1
29 1 3
29 2 2
29 3 3
29 4 3
29 5 3
29 6 2
29 7 3
29 8 3
29 9 4
29 10 4
29 11 4
29 12 2
29 13 4
29 14 3
29 15 3
29 16 4
29 17 2
29 18 1
29 19 4
29 20 3
29 21 3
29 22 3
29 23 3
29 24 1
29 25 3
29 26 4
29 27 4
29 28 4
30 0 4
30 1 3
30 2 2
30 3 4
30 4 3
30 5 2
30 6 3
30 7 2
30 8 1
30 9 2
30 10 1
30 11 1
30 12 2
30 13 1
30 14 1
30 15 1
30 16 2
30 17 1
30 18 3
30 19 1
30 20 1
30 21 1
30 22 1
30 23 3
30 24 2
30 25 3
30 26 4
30 27 1
30 28 3
30 29 4
31 0 3
31 1 3
31 2 1
31 3 2
31 4 2
31 5 1
31 6 4
31 7 3
31 8 2
31 9 3
31 10 3
31 11 3
31 12 3
31 13 4
31 14 3
31 15 3
31 16 4
31 17 3
31 18 2
31 19 4
31 20 3
31 21 1
31 22 2
31 23 4
31 24 1
31 25 3
31 26 3
31 27 4
31 28 2
31 29 3
31 30 2
32 0 3
32 1 3
32 2 2
32 3 2
32 4 3
32 5 2
32 6 4
32 7 3
32 8 2
32 9 2
32 10 2
32 11 3
32 12 3
32 13 1
32 14 3
32 15 2
32 16 3
32 17 3
32 18 1
32 19 1
32 20 3
32 21 1
32 22 3
32 23 4
32 24 1
32 25 4
32 26 1
32 27 2
32 28 1
32 29 1
32 30 2
32 31 3
33 0 3
33 1 3
33 2 3
33 3 2
33 4 1
33 5 2
33 6 2
33 7 4
33 8 4
33 9 1
33 10 4
33 11 2
33 12 3
33 13 1
33 14 1
33 15 1
33 16 3
33 17 1
33 18 3
33 19 1
33 20 2
33 21 1
33 22 3
33 23 4
33 24 2
33 25 1
33 26 3
33 27 4
33 28 1
33 29 3
33 30 2
33 31 2
33 32 2
34 0 1
34 1 2
34 2 1
34 3 2
34 4 4
34 5 4
34 6 1
34 7 3
34 8 4
34 9 2
34 10 1
34 11 3
34 12 2
34 13 1
34 14 1
34 15 2
34 16 2
34 17 1
34 18 4
34 19 4
34 20 4
34 21 1
34 22 1
34 23 4
34 24 1
34 25 3
34 26 1
34 27 4
34 28 2
34 29 1
34 30 4
34 31 2
34 32 2
34 33 3
35 0 4
35 1 2
35 2 4
35 3 4
35 4 1
35 5 4
35 6 3
35 7 3
35 8 1
35 9 1
35 10 2
35 11 3
35 12 4
35 13 3
35 14 2
35 15 4
35 16 2
35 17 3
35 18 1
35 19 2
35 20 4
35 21 2
35 22 1
35 23 1
35 24 3
35 25 3
35 26 2
35 27 3
35 28 1
35 29 4
35 30 1
35 31 3
35 32 4
35 33 3
35 34 3
36 0 3
36 1 1
36 2 1
36 3 4
36 4 4
36 5 3
36 6 1
36 7 1
36 8 2
36 9 3
36 10 3
36 11 2
36 12 3
36 13 2
36 14 3
36 15 3
36 16 1
36 17 3
36 18 2
36 19 4
36 20 4
36 21 1
36 22 4
36 23 3
36 24 2
36 25 1
36 26 3
36 27 3
36 28 3
36 29 4
36 30 4
36 31 4
36 32 2
36 33 3
36 34 4
36 35 3
37 0 3
37 1 4
37 2 2
37 3 2
37 4 2
37 5 4
37 6 1
37 7 1
37 8 2
37 9 3
37 10 4
37 11 4
37 12 2
37 13 1
37 14 1
37 15 4
37 16 2
37 17 2
37 18 2
37 19 3
37 20 2
37 21 1
37 22 4
37 23 3
37 24 3
37 25 1
37 26 4
37 27 3
37 28 3
37 29 4
37 30 4
37 31 2
37 32 4
37 33 1
37 34 4
37 35 2
37 36 3
38 0 4
38 1 2
38 2 1
38 3 2
38 4 2
38 5 1
38 6 3
38 7 2
38 8 1
38 9 1
38 10 3
38 11 1
38 12 4
38 13 4
38 14 3
38 15 4
38 16 4
38 17 1
38 18 3
38 19 2
38 20 4
38 21 2
38 22 3
38 23 4
38 24 2
38 25 4
38 26 1
38 27 1
38 28 1
38 29 2
38 30 1
38 31 1
38 32 3
38 33 2
38 34 3
38 35 4
38 36 3
38 37 4
39 0 1
39 1 4
39 2 4
39 3 3
39 4 4
39 5 4
39 6 3
39 7 2
39 8 2
39 9 2
39 10 1
39 11 3
39 12 1
39 13 4
39 14 1
39 15 2
39 16 4
39 17 4
39 18 1
39 19 2
39 20 4
39 21 2
39 22 2
39 23 2
39 24 4
39 25 3
39 26 3
39 27 4
39 28 3
39 29 1
39 30 2
39 31 4
39 32 1
39 33 4
39 34 2
39 35 4
39 36 1
39 37 3
39 38 3
